
;this file is automatically generated: Wed Apr 21 11:03:30 CST 2021

;declarations generated

(declare-fun oclExcludes ( Int Int) Bool)
(declare-fun obj_303ecf23_65c0_48a2_b974_1253c4322c4f ( Int) Int)
(declare-fun Cardinality ( Int) Int)
(declare-fun type_753d727b_ee75_4c27_9703_5b6c2d9f2a98_Class0 ( Int) Bool)
(declare-fun type_753d727b_ee75_4c27_9703_5b6c2d9f2a98_Class1 ( Int) Bool)
(declare-fun type_753d727b_ee75_4c27_9703_5b6c2d9f2a98_Class2 ( Int) Bool)
(declare-fun type_753d727b_ee75_4c27_9703_5b6c2d9f2a98_Class3 ( Int) Bool)
(declare-fun type_753d727b_ee75_4c27_9703_5b6c2d9f2a98_Class4 ( Int) Bool)
(declare-fun type_753d727b_ee75_4c27_9703_5b6c2d9f2a98_Class5 ( Int) Bool)
(declare-fun type_753d727b_ee75_4c27_9703_5b6c2d9f2a98_Class6 ( Int) Bool)
(declare-fun type_753d727b_ee75_4c27_9703_5b6c2d9f2a98_Class7 ( Int) Bool)
(declare-fun type_753d727b_ee75_4c27_9703_5b6c2d9f2a98_Class8 ( Int) Bool)
(declare-fun type_753d727b_ee75_4c27_9703_5b6c2d9f2a98_Class9 ( Int) Bool)
(declare-fun type_753d727b_ee75_4c27_9703_5b6c2d9f2a98_Class11 ( Int) Bool)
(declare-fun type_753d727b_ee75_4c27_9703_5b6c2d9f2a98_Class10 ( Int) Bool)
(declare-fun type_753d727b_ee75_4c27_9703_5b6c2d9f2a98_Class17 ( Int) Bool)
(declare-fun type_753d727b_ee75_4c27_9703_5b6c2d9f2a98_Class16 ( Int) Bool)
(declare-fun type_753d727b_ee75_4c27_9703_5b6c2d9f2a98_Class19 ( Int) Bool)
(declare-fun type_753d727b_ee75_4c27_9703_5b6c2d9f2a98_Class18 ( Int) Bool)
(declare-fun type_753d727b_ee75_4c27_9703_5b6c2d9f2a98_Class13 ( Int) Bool)
(declare-fun type_753d727b_ee75_4c27_9703_5b6c2d9f2a98_Class12 ( Int) Bool)
(declare-fun type_753d727b_ee75_4c27_9703_5b6c2d9f2a98_Class15 ( Int) Bool)
(declare-fun type_753d727b_ee75_4c27_9703_5b6c2d9f2a98_Class14 ( Int) Bool)
(declare-fun type_753d727b_ee75_4c27_9703_5b6c2d9f2a98_Class42 ( Int) Bool)
(declare-fun type_753d727b_ee75_4c27_9703_5b6c2d9f2a98_Class41 ( Int) Bool)
(declare-fun type_753d727b_ee75_4c27_9703_5b6c2d9f2a98_Class44 ( Int) Bool)
(declare-fun type_753d727b_ee75_4c27_9703_5b6c2d9f2a98_Class43 ( Int) Bool)
(declare-fun type_753d727b_ee75_4c27_9703_5b6c2d9f2a98_Class40 ( Int) Bool)
(declare-fun type_753d727b_ee75_4c27_9703_5b6c2d9f2a98_Class49 ( Int) Bool)
(declare-fun type_753d727b_ee75_4c27_9703_5b6c2d9f2a98_Class46 ( Int) Bool)
(declare-fun type_753d727b_ee75_4c27_9703_5b6c2d9f2a98_Class45 ( Int) Bool)
(declare-fun type_753d727b_ee75_4c27_9703_5b6c2d9f2a98_Class48 ( Int) Bool)
(declare-fun type_753d727b_ee75_4c27_9703_5b6c2d9f2a98_Class47 ( Int) Bool)
(declare-fun type_753d727b_ee75_4c27_9703_5b6c2d9f2a98_Class53 ( Int) Bool)
(declare-fun type_753d727b_ee75_4c27_9703_5b6c2d9f2a98_Class52 ( Int) Bool)
(declare-fun type_753d727b_ee75_4c27_9703_5b6c2d9f2a98_Class55 ( Int) Bool)
(declare-fun type_753d727b_ee75_4c27_9703_5b6c2d9f2a98_Class54 ( Int) Bool)
(declare-fun type_753d727b_ee75_4c27_9703_5b6c2d9f2a98_Class51 ( Int) Bool)
(declare-fun type_753d727b_ee75_4c27_9703_5b6c2d9f2a98_Class50 ( Int) Bool)
(declare-fun type_753d727b_ee75_4c27_9703_5b6c2d9f2a98_Class56 ( Int) Bool)
(declare-fun type_753d727b_ee75_4c27_9703_5b6c2d9f2a98_Class20 ( Int) Bool)
(declare-fun type_753d727b_ee75_4c27_9703_5b6c2d9f2a98_Class22 ( Int) Bool)
(declare-fun type_753d727b_ee75_4c27_9703_5b6c2d9f2a98_Class21 ( Int) Bool)
(declare-fun type_753d727b_ee75_4c27_9703_5b6c2d9f2a98_Class28 ( Int) Bool)
(declare-fun type_753d727b_ee75_4c27_9703_5b6c2d9f2a98_Class27 ( Int) Bool)
(declare-fun type_753d727b_ee75_4c27_9703_5b6c2d9f2a98_Class29 ( Int) Bool)
(declare-fun type_753d727b_ee75_4c27_9703_5b6c2d9f2a98_Class24 ( Int) Bool)
(declare-fun type_753d727b_ee75_4c27_9703_5b6c2d9f2a98_Class23 ( Int) Bool)
(declare-fun type_753d727b_ee75_4c27_9703_5b6c2d9f2a98_Class26 ( Int) Bool)
(declare-fun type_753d727b_ee75_4c27_9703_5b6c2d9f2a98_Class25 ( Int) Bool)
(declare-fun type_753d727b_ee75_4c27_9703_5b6c2d9f2a98_Class31 ( Int) Bool)
(declare-fun type_753d727b_ee75_4c27_9703_5b6c2d9f2a98_Class30 ( Int) Bool)
(declare-fun type_753d727b_ee75_4c27_9703_5b6c2d9f2a98_Class33 ( Int) Bool)
(declare-fun type_753d727b_ee75_4c27_9703_5b6c2d9f2a98_Class32 ( Int) Bool)
(declare-fun type_753d727b_ee75_4c27_9703_5b6c2d9f2a98_Class39 ( Int) Bool)
(declare-fun oclSelect ( Int Bool) Int)
(declare-fun type_753d727b_ee75_4c27_9703_5b6c2d9f2a98_Class38 ( Int) Bool)
(declare-fun type_753d727b_ee75_4c27_9703_5b6c2d9f2a98_Class35 ( Int) Bool)
(declare-fun type_753d727b_ee75_4c27_9703_5b6c2d9f2a98_Class34 ( Int) Bool)
(declare-fun type_753d727b_ee75_4c27_9703_5b6c2d9f2a98_Class37 ( Int) Bool)
(declare-fun type_753d727b_ee75_4c27_9703_5b6c2d9f2a98_Class36 ( Int) Bool)
(declare-fun Enum0 ( Int) Int)
(declare-fun Enum1 ( Int) Int)
(declare-fun Enum2 ( Int) Int)
(declare-fun container_ ( Int) Int)
(declare-fun oclIncludes ( Int Int) Bool)
(declare-fun ObjAt ( Int Int) Int)

;formula(s) generated
(assert (forall ((p Int)) (=> ( type_753d727b_ee75_4c27_9703_5b6c2d9f2a98_Class25 p )  (and (>= ( Enum2 ( obj_303ecf23_65c0_48a2_b974_1253c4322c4f p )  )  0) (<= ( Enum2 ( obj_303ecf23_65c0_48a2_b974_1253c4322c4f p )  )  6)))))
(assert (! (forall ((v Int)) (=> (and (and (and ( type_753d727b_ee75_4c27_9703_5b6c2d9f2a98_Class25 v )  ( type_753d727b_ee75_4c27_9703_5b6c2d9f2a98_Class12 v ) ) ( type_753d727b_ee75_4c27_9703_5b6c2d9f2a98_Class33 v ) ) ( type_753d727b_ee75_4c27_9703_5b6c2d9f2a98_Class15 v ) ) (= ( Enum2 ( obj_303ecf23_65c0_48a2_b974_1253c4322c4f v )  )  2))):named l0))
(assert (! (exists ((o Int)) (and (and (and (and (and (and ( type_753d727b_ee75_4c27_9703_5b6c2d9f2a98_Class0 ( obj_303ecf23_65c0_48a2_b974_1253c4322c4f o )  )  ( type_753d727b_ee75_4c27_9703_5b6c2d9f2a98_Class44 ( obj_303ecf23_65c0_48a2_b974_1253c4322c4f o )  ) ) ( type_753d727b_ee75_4c27_9703_5b6c2d9f2a98_Class36 ( obj_303ecf23_65c0_48a2_b974_1253c4322c4f o )  ) ) ( type_753d727b_ee75_4c27_9703_5b6c2d9f2a98_Class35 ( obj_303ecf23_65c0_48a2_b974_1253c4322c4f o )  ) ) ( type_753d727b_ee75_4c27_9703_5b6c2d9f2a98_Class27 ( obj_303ecf23_65c0_48a2_b974_1253c4322c4f o )  ) ) ( type_753d727b_ee75_4c27_9703_5b6c2d9f2a98_Class15 ( obj_303ecf23_65c0_48a2_b974_1253c4322c4f o )  ) ) ( type_753d727b_ee75_4c27_9703_5b6c2d9f2a98_Class28 ( obj_303ecf23_65c0_48a2_b974_1253c4322c4f o )  ) )):named c0))
(assert (! (exists ((o Int)) ( type_753d727b_ee75_4c27_9703_5b6c2d9f2a98_Class1 ( obj_303ecf23_65c0_48a2_b974_1253c4322c4f o )  ) ):named c1))
(assert (! (exists ((o Int)) (and (and ( type_753d727b_ee75_4c27_9703_5b6c2d9f2a98_Class10 ( obj_303ecf23_65c0_48a2_b974_1253c4322c4f o )  )  ( type_753d727b_ee75_4c27_9703_5b6c2d9f2a98_Class15 ( obj_303ecf23_65c0_48a2_b974_1253c4322c4f o )  ) ) ( type_753d727b_ee75_4c27_9703_5b6c2d9f2a98_Class21 ( obj_303ecf23_65c0_48a2_b974_1253c4322c4f o )  ) )):named c2))
(assert (! (exists ((o Int)) ( type_753d727b_ee75_4c27_9703_5b6c2d9f2a98_Class11 ( obj_303ecf23_65c0_48a2_b974_1253c4322c4f o )  ) ):named c3))
(assert (! (exists ((o Int)) (and (and ( type_753d727b_ee75_4c27_9703_5b6c2d9f2a98_Class12 ( obj_303ecf23_65c0_48a2_b974_1253c4322c4f o )  )  ( type_753d727b_ee75_4c27_9703_5b6c2d9f2a98_Class33 ( obj_303ecf23_65c0_48a2_b974_1253c4322c4f o )  ) ) ( type_753d727b_ee75_4c27_9703_5b6c2d9f2a98_Class15 ( obj_303ecf23_65c0_48a2_b974_1253c4322c4f o )  ) )):named c4))
(assert (! (exists ((o Int)) ( type_753d727b_ee75_4c27_9703_5b6c2d9f2a98_Class13 ( obj_303ecf23_65c0_48a2_b974_1253c4322c4f o )  ) ):named c5))
(assert (! (exists ((o Int)) (and (and (and (and (and (and ( type_753d727b_ee75_4c27_9703_5b6c2d9f2a98_Class14 ( obj_303ecf23_65c0_48a2_b974_1253c4322c4f o )  )  ( type_753d727b_ee75_4c27_9703_5b6c2d9f2a98_Class36 ( obj_303ecf23_65c0_48a2_b974_1253c4322c4f o )  ) ) ( type_753d727b_ee75_4c27_9703_5b6c2d9f2a98_Class35 ( obj_303ecf23_65c0_48a2_b974_1253c4322c4f o )  ) ) ( type_753d727b_ee75_4c27_9703_5b6c2d9f2a98_Class27 ( obj_303ecf23_65c0_48a2_b974_1253c4322c4f o )  ) ) ( type_753d727b_ee75_4c27_9703_5b6c2d9f2a98_Class9 ( obj_303ecf23_65c0_48a2_b974_1253c4322c4f o )  ) ) ( type_753d727b_ee75_4c27_9703_5b6c2d9f2a98_Class15 ( obj_303ecf23_65c0_48a2_b974_1253c4322c4f o )  ) ) ( type_753d727b_ee75_4c27_9703_5b6c2d9f2a98_Class28 ( obj_303ecf23_65c0_48a2_b974_1253c4322c4f o )  ) )):named c6))
(assert (! (exists ((o Int)) ( type_753d727b_ee75_4c27_9703_5b6c2d9f2a98_Class15 ( obj_303ecf23_65c0_48a2_b974_1253c4322c4f o )  ) ):named c7))
(assert (! (exists ((o Int)) ( type_753d727b_ee75_4c27_9703_5b6c2d9f2a98_Class16 ( obj_303ecf23_65c0_48a2_b974_1253c4322c4f o )  ) ):named c8))
(assert (! (exists ((o Int)) (and (and (and (and (and (and ( type_753d727b_ee75_4c27_9703_5b6c2d9f2a98_Class17 ( obj_303ecf23_65c0_48a2_b974_1253c4322c4f o )  )  ( type_753d727b_ee75_4c27_9703_5b6c2d9f2a98_Class44 ( obj_303ecf23_65c0_48a2_b974_1253c4322c4f o )  ) ) ( type_753d727b_ee75_4c27_9703_5b6c2d9f2a98_Class36 ( obj_303ecf23_65c0_48a2_b974_1253c4322c4f o )  ) ) ( type_753d727b_ee75_4c27_9703_5b6c2d9f2a98_Class35 ( obj_303ecf23_65c0_48a2_b974_1253c4322c4f o )  ) ) ( type_753d727b_ee75_4c27_9703_5b6c2d9f2a98_Class27 ( obj_303ecf23_65c0_48a2_b974_1253c4322c4f o )  ) ) ( type_753d727b_ee75_4c27_9703_5b6c2d9f2a98_Class15 ( obj_303ecf23_65c0_48a2_b974_1253c4322c4f o )  ) ) ( type_753d727b_ee75_4c27_9703_5b6c2d9f2a98_Class28 ( obj_303ecf23_65c0_48a2_b974_1253c4322c4f o )  ) )):named c9))
(assert (! (exists ((o Int)) ( type_753d727b_ee75_4c27_9703_5b6c2d9f2a98_Class18 ( obj_303ecf23_65c0_48a2_b974_1253c4322c4f o )  ) ):named c10))
(assert (! (exists ((o Int)) (and (and (and (and (and (and ( type_753d727b_ee75_4c27_9703_5b6c2d9f2a98_Class19 ( obj_303ecf23_65c0_48a2_b974_1253c4322c4f o )  )  ( type_753d727b_ee75_4c27_9703_5b6c2d9f2a98_Class36 ( obj_303ecf23_65c0_48a2_b974_1253c4322c4f o )  ) ) ( type_753d727b_ee75_4c27_9703_5b6c2d9f2a98_Class35 ( obj_303ecf23_65c0_48a2_b974_1253c4322c4f o )  ) ) ( type_753d727b_ee75_4c27_9703_5b6c2d9f2a98_Class27 ( obj_303ecf23_65c0_48a2_b974_1253c4322c4f o )  ) ) ( type_753d727b_ee75_4c27_9703_5b6c2d9f2a98_Class9 ( obj_303ecf23_65c0_48a2_b974_1253c4322c4f o )  ) ) ( type_753d727b_ee75_4c27_9703_5b6c2d9f2a98_Class15 ( obj_303ecf23_65c0_48a2_b974_1253c4322c4f o )  ) ) ( type_753d727b_ee75_4c27_9703_5b6c2d9f2a98_Class28 ( obj_303ecf23_65c0_48a2_b974_1253c4322c4f o )  ) )):named c11))
(assert (! (exists ((o Int)) (and (and (and (and (and (and ( type_753d727b_ee75_4c27_9703_5b6c2d9f2a98_Class2 ( obj_303ecf23_65c0_48a2_b974_1253c4322c4f o )  )  ( type_753d727b_ee75_4c27_9703_5b6c2d9f2a98_Class36 ( obj_303ecf23_65c0_48a2_b974_1253c4322c4f o )  ) ) ( type_753d727b_ee75_4c27_9703_5b6c2d9f2a98_Class35 ( obj_303ecf23_65c0_48a2_b974_1253c4322c4f o )  ) ) ( type_753d727b_ee75_4c27_9703_5b6c2d9f2a98_Class27 ( obj_303ecf23_65c0_48a2_b974_1253c4322c4f o )  ) ) ( type_753d727b_ee75_4c27_9703_5b6c2d9f2a98_Class15 ( obj_303ecf23_65c0_48a2_b974_1253c4322c4f o )  ) ) ( type_753d727b_ee75_4c27_9703_5b6c2d9f2a98_Class28 ( obj_303ecf23_65c0_48a2_b974_1253c4322c4f o )  ) ) ( type_753d727b_ee75_4c27_9703_5b6c2d9f2a98_Class54 ( obj_303ecf23_65c0_48a2_b974_1253c4322c4f o )  ) )):named c12))
(assert (! (exists ((o Int)) (and ( type_753d727b_ee75_4c27_9703_5b6c2d9f2a98_Class20 ( obj_303ecf23_65c0_48a2_b974_1253c4322c4f o )  )  ( type_753d727b_ee75_4c27_9703_5b6c2d9f2a98_Class15 ( obj_303ecf23_65c0_48a2_b974_1253c4322c4f o )  ) )):named c13))
(assert (! (exists ((o Int)) (and ( type_753d727b_ee75_4c27_9703_5b6c2d9f2a98_Class21 ( obj_303ecf23_65c0_48a2_b974_1253c4322c4f o )  )  ( type_753d727b_ee75_4c27_9703_5b6c2d9f2a98_Class15 ( obj_303ecf23_65c0_48a2_b974_1253c4322c4f o )  ) )):named c14))
(assert (! (exists ((o Int)) (and (and (and ( type_753d727b_ee75_4c27_9703_5b6c2d9f2a98_Class22 ( obj_303ecf23_65c0_48a2_b974_1253c4322c4f o )  )  ( type_753d727b_ee75_4c27_9703_5b6c2d9f2a98_Class15 ( obj_303ecf23_65c0_48a2_b974_1253c4322c4f o )  ) ) ( type_753d727b_ee75_4c27_9703_5b6c2d9f2a98_Class48 ( obj_303ecf23_65c0_48a2_b974_1253c4322c4f o )  ) ) ( type_753d727b_ee75_4c27_9703_5b6c2d9f2a98_Class43 ( obj_303ecf23_65c0_48a2_b974_1253c4322c4f o )  ) )):named c15))
(assert (! (exists ((o Int)) ( type_753d727b_ee75_4c27_9703_5b6c2d9f2a98_Class23 ( obj_303ecf23_65c0_48a2_b974_1253c4322c4f o )  ) ):named c16))
(assert (! (exists ((o Int)) ( type_753d727b_ee75_4c27_9703_5b6c2d9f2a98_Class24 ( obj_303ecf23_65c0_48a2_b974_1253c4322c4f o )  ) ):named c17))
(assert (! (exists ((o Int)) (and (and (and ( type_753d727b_ee75_4c27_9703_5b6c2d9f2a98_Class25 ( obj_303ecf23_65c0_48a2_b974_1253c4322c4f o )  )  ( type_753d727b_ee75_4c27_9703_5b6c2d9f2a98_Class12 ( obj_303ecf23_65c0_48a2_b974_1253c4322c4f o )  ) ) ( type_753d727b_ee75_4c27_9703_5b6c2d9f2a98_Class33 ( obj_303ecf23_65c0_48a2_b974_1253c4322c4f o )  ) ) ( type_753d727b_ee75_4c27_9703_5b6c2d9f2a98_Class15 ( obj_303ecf23_65c0_48a2_b974_1253c4322c4f o )  ) )):named c18))
(assert (! (exists ((o Int)) ( type_753d727b_ee75_4c27_9703_5b6c2d9f2a98_Class26 ( obj_303ecf23_65c0_48a2_b974_1253c4322c4f o )  ) ):named c19))
(assert (! (exists ((o Int)) (and ( type_753d727b_ee75_4c27_9703_5b6c2d9f2a98_Class27 ( obj_303ecf23_65c0_48a2_b974_1253c4322c4f o )  )  ( type_753d727b_ee75_4c27_9703_5b6c2d9f2a98_Class15 ( obj_303ecf23_65c0_48a2_b974_1253c4322c4f o )  ) )):named c20))
(assert (! (exists ((o Int)) (and (and ( type_753d727b_ee75_4c27_9703_5b6c2d9f2a98_Class28 ( obj_303ecf23_65c0_48a2_b974_1253c4322c4f o )  )  ( type_753d727b_ee75_4c27_9703_5b6c2d9f2a98_Class27 ( obj_303ecf23_65c0_48a2_b974_1253c4322c4f o )  ) ) ( type_753d727b_ee75_4c27_9703_5b6c2d9f2a98_Class15 ( obj_303ecf23_65c0_48a2_b974_1253c4322c4f o )  ) )):named c21))
(assert (! (exists ((o Int)) (and (and (and (and (and ( type_753d727b_ee75_4c27_9703_5b6c2d9f2a98_Class29 ( obj_303ecf23_65c0_48a2_b974_1253c4322c4f o )  )  ( type_753d727b_ee75_4c27_9703_5b6c2d9f2a98_Class36 ( obj_303ecf23_65c0_48a2_b974_1253c4322c4f o )  ) ) ( type_753d727b_ee75_4c27_9703_5b6c2d9f2a98_Class35 ( obj_303ecf23_65c0_48a2_b974_1253c4322c4f o )  ) ) ( type_753d727b_ee75_4c27_9703_5b6c2d9f2a98_Class27 ( obj_303ecf23_65c0_48a2_b974_1253c4322c4f o )  ) ) ( type_753d727b_ee75_4c27_9703_5b6c2d9f2a98_Class15 ( obj_303ecf23_65c0_48a2_b974_1253c4322c4f o )  ) ) ( type_753d727b_ee75_4c27_9703_5b6c2d9f2a98_Class28 ( obj_303ecf23_65c0_48a2_b974_1253c4322c4f o )  ) )):named c22))
(assert (! (exists ((o Int)) ( type_753d727b_ee75_4c27_9703_5b6c2d9f2a98_Class3 ( obj_303ecf23_65c0_48a2_b974_1253c4322c4f o )  ) ):named c23))
(assert (! (exists ((o Int)) (and (and ( type_753d727b_ee75_4c27_9703_5b6c2d9f2a98_Class30 ( obj_303ecf23_65c0_48a2_b974_1253c4322c4f o )  )  ( type_753d727b_ee75_4c27_9703_5b6c2d9f2a98_Class33 ( obj_303ecf23_65c0_48a2_b974_1253c4322c4f o )  ) ) ( type_753d727b_ee75_4c27_9703_5b6c2d9f2a98_Class15 ( obj_303ecf23_65c0_48a2_b974_1253c4322c4f o )  ) )):named c24))
(assert (! (exists ((o Int)) (and (and (and (and (and (and ( type_753d727b_ee75_4c27_9703_5b6c2d9f2a98_Class31 ( obj_303ecf23_65c0_48a2_b974_1253c4322c4f o )  )  ( type_753d727b_ee75_4c27_9703_5b6c2d9f2a98_Class36 ( obj_303ecf23_65c0_48a2_b974_1253c4322c4f o )  ) ) ( type_753d727b_ee75_4c27_9703_5b6c2d9f2a98_Class35 ( obj_303ecf23_65c0_48a2_b974_1253c4322c4f o )  ) ) ( type_753d727b_ee75_4c27_9703_5b6c2d9f2a98_Class27 ( obj_303ecf23_65c0_48a2_b974_1253c4322c4f o )  ) ) ( type_753d727b_ee75_4c27_9703_5b6c2d9f2a98_Class15 ( obj_303ecf23_65c0_48a2_b974_1253c4322c4f o )  ) ) ( type_753d727b_ee75_4c27_9703_5b6c2d9f2a98_Class28 ( obj_303ecf23_65c0_48a2_b974_1253c4322c4f o )  ) ) ( type_753d727b_ee75_4c27_9703_5b6c2d9f2a98_Class54 ( obj_303ecf23_65c0_48a2_b974_1253c4322c4f o )  ) )):named c25))
(assert (! (exists ((o Int)) ( type_753d727b_ee75_4c27_9703_5b6c2d9f2a98_Class32 ( obj_303ecf23_65c0_48a2_b974_1253c4322c4f o )  ) ):named c26))
(assert (! (exists ((o Int)) (and ( type_753d727b_ee75_4c27_9703_5b6c2d9f2a98_Class33 ( obj_303ecf23_65c0_48a2_b974_1253c4322c4f o )  )  ( type_753d727b_ee75_4c27_9703_5b6c2d9f2a98_Class15 ( obj_303ecf23_65c0_48a2_b974_1253c4322c4f o )  ) )):named c27))
(assert (! (exists ((o Int)) ( type_753d727b_ee75_4c27_9703_5b6c2d9f2a98_Class34 ( obj_303ecf23_65c0_48a2_b974_1253c4322c4f o )  ) ):named c28))
(assert (! (exists ((o Int)) (and (and (and (and ( type_753d727b_ee75_4c27_9703_5b6c2d9f2a98_Class35 ( obj_303ecf23_65c0_48a2_b974_1253c4322c4f o )  )  ( type_753d727b_ee75_4c27_9703_5b6c2d9f2a98_Class36 ( obj_303ecf23_65c0_48a2_b974_1253c4322c4f o )  ) ) ( type_753d727b_ee75_4c27_9703_5b6c2d9f2a98_Class27 ( obj_303ecf23_65c0_48a2_b974_1253c4322c4f o )  ) ) ( type_753d727b_ee75_4c27_9703_5b6c2d9f2a98_Class15 ( obj_303ecf23_65c0_48a2_b974_1253c4322c4f o )  ) ) ( type_753d727b_ee75_4c27_9703_5b6c2d9f2a98_Class28 ( obj_303ecf23_65c0_48a2_b974_1253c4322c4f o )  ) )):named c29))
(assert (! (exists ((o Int)) (and (and (and ( type_753d727b_ee75_4c27_9703_5b6c2d9f2a98_Class36 ( obj_303ecf23_65c0_48a2_b974_1253c4322c4f o )  )  ( type_753d727b_ee75_4c27_9703_5b6c2d9f2a98_Class27 ( obj_303ecf23_65c0_48a2_b974_1253c4322c4f o )  ) ) ( type_753d727b_ee75_4c27_9703_5b6c2d9f2a98_Class15 ( obj_303ecf23_65c0_48a2_b974_1253c4322c4f o )  ) ) ( type_753d727b_ee75_4c27_9703_5b6c2d9f2a98_Class28 ( obj_303ecf23_65c0_48a2_b974_1253c4322c4f o )  ) )):named c30))
(assert (! (exists ((o Int)) (and ( type_753d727b_ee75_4c27_9703_5b6c2d9f2a98_Class37 ( obj_303ecf23_65c0_48a2_b974_1253c4322c4f o )  )  ( type_753d727b_ee75_4c27_9703_5b6c2d9f2a98_Class15 ( obj_303ecf23_65c0_48a2_b974_1253c4322c4f o )  ) )):named c31))
(assert (! (exists ((o Int)) (and (and (and (and ( type_753d727b_ee75_4c27_9703_5b6c2d9f2a98_Class38 ( obj_303ecf23_65c0_48a2_b974_1253c4322c4f o )  )  ( type_753d727b_ee75_4c27_9703_5b6c2d9f2a98_Class22 ( obj_303ecf23_65c0_48a2_b974_1253c4322c4f o )  ) ) ( type_753d727b_ee75_4c27_9703_5b6c2d9f2a98_Class15 ( obj_303ecf23_65c0_48a2_b974_1253c4322c4f o )  ) ) ( type_753d727b_ee75_4c27_9703_5b6c2d9f2a98_Class48 ( obj_303ecf23_65c0_48a2_b974_1253c4322c4f o )  ) ) ( type_753d727b_ee75_4c27_9703_5b6c2d9f2a98_Class43 ( obj_303ecf23_65c0_48a2_b974_1253c4322c4f o )  ) )):named c32))
(assert (! (exists ((o Int)) ( type_753d727b_ee75_4c27_9703_5b6c2d9f2a98_Class39 ( obj_303ecf23_65c0_48a2_b974_1253c4322c4f o )  ) ):named c33))
(assert (! (exists ((o Int)) (and (and (and (and (and (and ( type_753d727b_ee75_4c27_9703_5b6c2d9f2a98_Class4 ( obj_303ecf23_65c0_48a2_b974_1253c4322c4f o )  )  ( type_753d727b_ee75_4c27_9703_5b6c2d9f2a98_Class44 ( obj_303ecf23_65c0_48a2_b974_1253c4322c4f o )  ) ) ( type_753d727b_ee75_4c27_9703_5b6c2d9f2a98_Class36 ( obj_303ecf23_65c0_48a2_b974_1253c4322c4f o )  ) ) ( type_753d727b_ee75_4c27_9703_5b6c2d9f2a98_Class35 ( obj_303ecf23_65c0_48a2_b974_1253c4322c4f o )  ) ) ( type_753d727b_ee75_4c27_9703_5b6c2d9f2a98_Class27 ( obj_303ecf23_65c0_48a2_b974_1253c4322c4f o )  ) ) ( type_753d727b_ee75_4c27_9703_5b6c2d9f2a98_Class15 ( obj_303ecf23_65c0_48a2_b974_1253c4322c4f o )  ) ) ( type_753d727b_ee75_4c27_9703_5b6c2d9f2a98_Class28 ( obj_303ecf23_65c0_48a2_b974_1253c4322c4f o )  ) )):named c34))
(assert (! (exists ((o Int)) ( type_753d727b_ee75_4c27_9703_5b6c2d9f2a98_Class40 ( obj_303ecf23_65c0_48a2_b974_1253c4322c4f o )  ) ):named c35))
(assert (! (exists ((o Int)) ( type_753d727b_ee75_4c27_9703_5b6c2d9f2a98_Class41 ( obj_303ecf23_65c0_48a2_b974_1253c4322c4f o )  ) ):named c36))
(assert (! (exists ((o Int)) ( type_753d727b_ee75_4c27_9703_5b6c2d9f2a98_Class42 ( obj_303ecf23_65c0_48a2_b974_1253c4322c4f o )  ) ):named c37))
(assert (! (exists ((o Int)) (and ( type_753d727b_ee75_4c27_9703_5b6c2d9f2a98_Class43 ( obj_303ecf23_65c0_48a2_b974_1253c4322c4f o )  )  ( type_753d727b_ee75_4c27_9703_5b6c2d9f2a98_Class15 ( obj_303ecf23_65c0_48a2_b974_1253c4322c4f o )  ) )):named c38))
(assert (! (exists ((o Int)) (and (and (and (and (and ( type_753d727b_ee75_4c27_9703_5b6c2d9f2a98_Class44 ( obj_303ecf23_65c0_48a2_b974_1253c4322c4f o )  )  ( type_753d727b_ee75_4c27_9703_5b6c2d9f2a98_Class36 ( obj_303ecf23_65c0_48a2_b974_1253c4322c4f o )  ) ) ( type_753d727b_ee75_4c27_9703_5b6c2d9f2a98_Class35 ( obj_303ecf23_65c0_48a2_b974_1253c4322c4f o )  ) ) ( type_753d727b_ee75_4c27_9703_5b6c2d9f2a98_Class27 ( obj_303ecf23_65c0_48a2_b974_1253c4322c4f o )  ) ) ( type_753d727b_ee75_4c27_9703_5b6c2d9f2a98_Class15 ( obj_303ecf23_65c0_48a2_b974_1253c4322c4f o )  ) ) ( type_753d727b_ee75_4c27_9703_5b6c2d9f2a98_Class28 ( obj_303ecf23_65c0_48a2_b974_1253c4322c4f o )  ) )):named c39))
(assert (! (exists ((o Int)) (and (and (and (and (and (and ( type_753d727b_ee75_4c27_9703_5b6c2d9f2a98_Class45 ( obj_303ecf23_65c0_48a2_b974_1253c4322c4f o )  )  ( type_753d727b_ee75_4c27_9703_5b6c2d9f2a98_Class36 ( obj_303ecf23_65c0_48a2_b974_1253c4322c4f o )  ) ) ( type_753d727b_ee75_4c27_9703_5b6c2d9f2a98_Class35 ( obj_303ecf23_65c0_48a2_b974_1253c4322c4f o )  ) ) ( type_753d727b_ee75_4c27_9703_5b6c2d9f2a98_Class27 ( obj_303ecf23_65c0_48a2_b974_1253c4322c4f o )  ) ) ( type_753d727b_ee75_4c27_9703_5b6c2d9f2a98_Class9 ( obj_303ecf23_65c0_48a2_b974_1253c4322c4f o )  ) ) ( type_753d727b_ee75_4c27_9703_5b6c2d9f2a98_Class15 ( obj_303ecf23_65c0_48a2_b974_1253c4322c4f o )  ) ) ( type_753d727b_ee75_4c27_9703_5b6c2d9f2a98_Class28 ( obj_303ecf23_65c0_48a2_b974_1253c4322c4f o )  ) )):named c40))
(assert (! (exists ((o Int)) (and (and ( type_753d727b_ee75_4c27_9703_5b6c2d9f2a98_Class46 ( obj_303ecf23_65c0_48a2_b974_1253c4322c4f o )  )  ( type_753d727b_ee75_4c27_9703_5b6c2d9f2a98_Class15 ( obj_303ecf23_65c0_48a2_b974_1253c4322c4f o )  ) ) ( type_753d727b_ee75_4c27_9703_5b6c2d9f2a98_Class5 ( obj_303ecf23_65c0_48a2_b974_1253c4322c4f o )  ) )):named c41))
(assert (! (exists ((o Int)) ( type_753d727b_ee75_4c27_9703_5b6c2d9f2a98_Class47 ( obj_303ecf23_65c0_48a2_b974_1253c4322c4f o )  ) ):named c42))
(assert (! (exists ((o Int)) (and ( type_753d727b_ee75_4c27_9703_5b6c2d9f2a98_Class48 ( obj_303ecf23_65c0_48a2_b974_1253c4322c4f o )  )  ( type_753d727b_ee75_4c27_9703_5b6c2d9f2a98_Class15 ( obj_303ecf23_65c0_48a2_b974_1253c4322c4f o )  ) )):named c43))
(assert (! (exists ((o Int)) ( type_753d727b_ee75_4c27_9703_5b6c2d9f2a98_Class49 ( obj_303ecf23_65c0_48a2_b974_1253c4322c4f o )  ) ):named c44))
(assert (! (exists ((o Int)) (and ( type_753d727b_ee75_4c27_9703_5b6c2d9f2a98_Class5 ( obj_303ecf23_65c0_48a2_b974_1253c4322c4f o )  )  ( type_753d727b_ee75_4c27_9703_5b6c2d9f2a98_Class15 ( obj_303ecf23_65c0_48a2_b974_1253c4322c4f o )  ) )):named c45))
(assert (! (exists ((o Int)) ( type_753d727b_ee75_4c27_9703_5b6c2d9f2a98_Class50 ( obj_303ecf23_65c0_48a2_b974_1253c4322c4f o )  ) ):named c46))
(assert (! (exists ((o Int)) ( type_753d727b_ee75_4c27_9703_5b6c2d9f2a98_Class51 ( obj_303ecf23_65c0_48a2_b974_1253c4322c4f o )  ) ):named c47))
(assert (! (exists ((o Int)) ( type_753d727b_ee75_4c27_9703_5b6c2d9f2a98_Class52 ( obj_303ecf23_65c0_48a2_b974_1253c4322c4f o )  ) ):named c48))
(assert (! (exists ((o Int)) ( type_753d727b_ee75_4c27_9703_5b6c2d9f2a98_Class53 ( obj_303ecf23_65c0_48a2_b974_1253c4322c4f o )  ) ):named c49))
(assert (! (exists ((o Int)) (and (and (and (and (and ( type_753d727b_ee75_4c27_9703_5b6c2d9f2a98_Class54 ( obj_303ecf23_65c0_48a2_b974_1253c4322c4f o )  )  ( type_753d727b_ee75_4c27_9703_5b6c2d9f2a98_Class36 ( obj_303ecf23_65c0_48a2_b974_1253c4322c4f o )  ) ) ( type_753d727b_ee75_4c27_9703_5b6c2d9f2a98_Class35 ( obj_303ecf23_65c0_48a2_b974_1253c4322c4f o )  ) ) ( type_753d727b_ee75_4c27_9703_5b6c2d9f2a98_Class27 ( obj_303ecf23_65c0_48a2_b974_1253c4322c4f o )  ) ) ( type_753d727b_ee75_4c27_9703_5b6c2d9f2a98_Class15 ( obj_303ecf23_65c0_48a2_b974_1253c4322c4f o )  ) ) ( type_753d727b_ee75_4c27_9703_5b6c2d9f2a98_Class28 ( obj_303ecf23_65c0_48a2_b974_1253c4322c4f o )  ) )):named c50))
(assert (! (exists ((o Int)) ( type_753d727b_ee75_4c27_9703_5b6c2d9f2a98_Class55 ( obj_303ecf23_65c0_48a2_b974_1253c4322c4f o )  ) ):named c51))
(assert (! (exists ((o Int)) ( type_753d727b_ee75_4c27_9703_5b6c2d9f2a98_Class56 ( obj_303ecf23_65c0_48a2_b974_1253c4322c4f o )  ) ):named c52))
(assert (! (exists ((o Int)) (and (and (and (and ( type_753d727b_ee75_4c27_9703_5b6c2d9f2a98_Class6 ( obj_303ecf23_65c0_48a2_b974_1253c4322c4f o )  )  ( type_753d727b_ee75_4c27_9703_5b6c2d9f2a98_Class22 ( obj_303ecf23_65c0_48a2_b974_1253c4322c4f o )  ) ) ( type_753d727b_ee75_4c27_9703_5b6c2d9f2a98_Class15 ( obj_303ecf23_65c0_48a2_b974_1253c4322c4f o )  ) ) ( type_753d727b_ee75_4c27_9703_5b6c2d9f2a98_Class48 ( obj_303ecf23_65c0_48a2_b974_1253c4322c4f o )  ) ) ( type_753d727b_ee75_4c27_9703_5b6c2d9f2a98_Class43 ( obj_303ecf23_65c0_48a2_b974_1253c4322c4f o )  ) )):named c53))
(assert (! (exists ((o Int)) ( type_753d727b_ee75_4c27_9703_5b6c2d9f2a98_Class7 ( obj_303ecf23_65c0_48a2_b974_1253c4322c4f o )  ) ):named c54))
(assert (! (exists ((o Int)) ( type_753d727b_ee75_4c27_9703_5b6c2d9f2a98_Class8 ( obj_303ecf23_65c0_48a2_b974_1253c4322c4f o )  ) ):named c55))
(assert (! (exists ((o Int)) (and (and (and (and (and ( type_753d727b_ee75_4c27_9703_5b6c2d9f2a98_Class9 ( obj_303ecf23_65c0_48a2_b974_1253c4322c4f o )  )  ( type_753d727b_ee75_4c27_9703_5b6c2d9f2a98_Class36 ( obj_303ecf23_65c0_48a2_b974_1253c4322c4f o )  ) ) ( type_753d727b_ee75_4c27_9703_5b6c2d9f2a98_Class35 ( obj_303ecf23_65c0_48a2_b974_1253c4322c4f o )  ) ) ( type_753d727b_ee75_4c27_9703_5b6c2d9f2a98_Class27 ( obj_303ecf23_65c0_48a2_b974_1253c4322c4f o )  ) ) ( type_753d727b_ee75_4c27_9703_5b6c2d9f2a98_Class15 ( obj_303ecf23_65c0_48a2_b974_1253c4322c4f o )  ) ) ( type_753d727b_ee75_4c27_9703_5b6c2d9f2a98_Class28 ( obj_303ecf23_65c0_48a2_b974_1253c4322c4f o )  ) )):named c56))

 ;end of formula 